
Gurobi 7.0.2 (win64, Python) logging started 11/21/17 00:27:47


Gurobi 7.0.2 (win64, Python) logging started 11/21/17 21:54:37


Gurobi 7.0.2 (win64, Python) logging started 11/22/17 13:51:49


Gurobi 7.0.2 (win64, Python) logging started 11/22/17 14:32:48


Gurobi 7.0.2 (win64, Python) logging started 11/22/17 14:50:39


Gurobi 7.0.2 (win64, Python) logging started 11/22/17 15:11:04


Gurobi 7.0.2 (win64, Python) logging started 11/22/17 15:22:03


Gurobi 7.0.2 (win64, Python) logging started 11/22/17 16:47:37


Gurobi 7.0.2 (win64, Python) logging started 11/22/17 16:55:32


Gurobi 7.0.2 (win64, Python) logging started 11/22/17 16:58:40


Gurobi 7.0.2 (win64, Python) logging started 11/22/17 21:26:45


Gurobi 7.0.2 (win64, Python) logging started 11/22/17 21:46:01


Gurobi 7.0.2 (win64, Python) logging started 12/03/17 11:58:09

